\Problem name: compact

Minimize
OBJROW: C
Subject To
ord(0,1):  x(0,0) - x(0,1) >= 7
ord(0,2):  - x(0,0) + x(0,2) >= 7
ord(1,1):  x(1,0) - x(1,1) >= 5
ord(1,2):  - x(1,0) + x(1,2) >= 10
ord(2,1):  x(2,0) - x(2,2) >= 1
ord(2,2):  - x(2,0) + x(2,1) >= 9
ord(3,1):  x(3,0) - x(3,2) >= 2
ord(3,2):  - x(3,0) + x(3,1) >= 8
triangle2(0,1,0):  y(0,1,0) + y(1,0,0) = 1
triangle2(0,1,1):  y(0,1,1) + y(1,0,1) = 1
triangle2(0,1,2):  y(0,1,2) + y(1,0,2) = 1
triangle2(0,2,0):  y(0,2,0) + y(2,0,0) = 1
triangle2(0,2,1):  y(0,2,1) + y(2,0,1) = 1
triangle2(0,2,2):  y(0,2,2) + y(2,0,2) = 1
triangle2(0,3,0):  y(0,3,0) + y(3,0,0) = 1
triangle2(0,3,1):  y(0,3,1) + y(3,0,1) = 1
triangle2(0,3,2):  y(0,3,2) + y(3,0,2) = 1
triangle2(1,2,0):  y(1,2,0) + y(2,1,0) = 1
triangle2(1,2,1):  y(1,2,1) + y(2,1,1) = 1
triangle2(1,2,2):  y(1,2,2) + y(2,1,2) = 1
triangle2(1,3,0):  y(1,3,0) + y(3,1,0) = 1
triangle2(1,3,1):  y(1,3,1) + y(3,1,1) = 1
triangle2(1,3,2):  y(1,3,2) + y(3,1,2) = 1
triangle2(2,3,0):  y(2,3,0) + y(3,2,0) = 1
triangle2(2,3,1):  y(2,3,1) + y(3,2,1) = 1
triangle2(2,3,2):  y(2,3,2) + y(3,2,2) = 1
MCLinV(0,1,0):  x(0,0) - v(0,1,0) - x(1,0) = 10
MCLinV(1,0,0):  - x(0,0) - v(1,0,0) + x(1,0) = 7
MCLin1(0,1,0):  u(0,1,0) >= -0
MCLin2(0,1,0):  -60 y(1,0,0) - u(0,1,0) <= -0
MCLin3(0,1,0):  47 y(1,0,0) + v(0,1,0) - u(0,1,0) <= 47
MCLin4(0,1,0):  47 y(1,0,0) - u(0,1,0) >= -0
MCLin5(0,1,0):  -60 y(1,0,0) + v(0,1,0) - u(0,1,0) >= -60
MCLin6(1,0,0):  u(1,0,0) >= -0
MCLin7(1,0,0):  -64 y(0,1,0) - u(1,0,0) <= -0
MCLin8(1,0,0):  43 y(0,1,0) + v(1,0,0) - u(1,0,0) <= 43
MCLin9(1,0,0):  43 y(0,1,0) - u(1,0,0) >= -0
MCLin10(1,0,0):  -64 y(0,1,0) + v(1,0,0) - u(1,0,0) >= -64
MCLinV(0,1,1):  x(0,1) - v(0,1,1) - x(1,1) = 5
MCLinV(1,0,1):  - x(0,1) - v(1,0,1) + x(1,1) = 7
MCLin1(0,1,1):  u(0,1,1) >= -0
MCLin2(0,1,1):  -57 y(1,0,1) - u(0,1,1) <= -0
MCLin3(0,1,1):  50 y(1,0,1) + v(0,1,1) - u(0,1,1) <= 50
MCLin4(0,1,1):  50 y(1,0,1) - u(0,1,1) >= -0
MCLin5(0,1,1):  -57 y(1,0,1) + v(0,1,1) - u(0,1,1) >= -57
MCLin6(1,0,1):  u(1,0,1) >= -0
MCLin7(1,0,1):  -62 y(0,1,1) - u(1,0,1) <= -0
MCLin8(1,0,1):  45 y(0,1,1) + v(1,0,1) - u(1,0,1) <= 45
MCLin9(1,0,1):  45 y(0,1,1) - u(1,0,1) >= -0
MCLin10(1,0,1):  -62 y(0,1,1) + v(1,0,1) - u(1,0,1) >= -62
MCLinV(0,1,2):  x(0,2) - v(0,1,2) - x(1,2) = 8
MCLinV(1,0,2):  - x(0,2) - v(1,0,2) + x(1,2) = 6
MCLin1(0,1,2):  u(0,1,2) >= -0
MCLin2(0,1,2):  -61 y(1,0,2) - u(0,1,2) <= -0
MCLin3(0,1,2):  46 y(1,0,2) + v(0,1,2) - u(0,1,2) <= 46
MCLin4(0,1,2):  46 y(1,0,2) - u(0,1,2) >= -0
MCLin5(0,1,2):  -61 y(1,0,2) + v(0,1,2) - u(0,1,2) >= -61
MCLin6(1,0,2):  u(1,0,2) >= -0
MCLin7(1,0,2):  -60 y(0,1,2) - u(1,0,2) <= -0
MCLin8(1,0,2):  47 y(0,1,2) + v(1,0,2) - u(1,0,2) <= 47
MCLin9(1,0,2):  47 y(0,1,2) - u(1,0,2) >= -0
MCLin10(1,0,2):  -60 y(0,1,2) + v(1,0,2) - u(1,0,2) >= -60
MCLinV(0,2,0):  x(0,0) - v(0,2,0) - x(2,0) = 9
MCLinV(2,0,0):  - x(0,0) - v(2,0,0) + x(2,0) = 7
MCLin1(0,2,0):  u(0,2,0) >= -0
MCLin2(0,2,0):  -61 y(2,0,0) - u(0,2,0) <= -0
MCLin3(0,2,0):  52 y(2,0,0) + v(0,2,0) - u(0,2,0) <= 52
MCLin4(0,2,0):  52 y(2,0,0) - u(0,2,0) >= -0
MCLin5(0,2,0):  -61 y(2,0,0) + v(0,2,0) - u(0,2,0) >= -61
MCLin6(2,0,0):  u(2,0,0) >= -0
MCLin7(2,0,0):  -68 y(0,2,0) - u(2,0,0) <= -0
MCLin8(2,0,0):  45 y(0,2,0) + v(2,0,0) - u(2,0,0) <= 45
MCLin9(2,0,0):  45 y(0,2,0) - u(2,0,0) >= -0
MCLin10(2,0,0):  -68 y(0,2,0) + v(2,0,0) - u(2,0,0) >= -68
MCLinV(0,2,1):  x(0,1) - v(0,2,1) - x(2,1) = 7
MCLinV(2,0,1):  - x(0,1) - v(2,0,1) + x(2,1) = 7
MCLin1(0,2,1):  u(0,2,1) >= -0
MCLin2(0,2,1):  -75 y(2,0,1) - u(0,2,1) <= -0
MCLin3(0,2,1):  38 y(2,0,1) + v(0,2,1) - u(0,2,1) <= 38
MCLin4(0,2,1):  38 y(2,0,1) - u(0,2,1) >= -0
MCLin5(0,2,1):  -75 y(2,0,1) + v(0,2,1) - u(0,2,1) >= -75
MCLin6(2,0,1):  u(2,0,1) >= -0
MCLin7(2,0,1):  -52 y(0,2,1) - u(2,0,1) <= -0
MCLin8(2,0,1):  61 y(0,2,1) + v(2,0,1) - u(2,0,1) <= 61
MCLin9(2,0,1):  61 y(0,2,1) - u(2,0,1) >= -0
MCLin10(2,0,1):  -52 y(0,2,1) + v(2,0,1) - u(2,0,1) >= -52
MCLinV(0,2,2):  x(0,2) - v(0,2,2) - x(2,2) = 1
MCLinV(2,0,2):  - x(0,2) - v(2,0,2) + x(2,2) = 6
MCLin1(0,2,2):  u(0,2,2) >= -0
MCLin2(0,2,2):  -45 y(2,0,2) - u(0,2,2) <= -0
MCLin3(0,2,2):  68 y(2,0,2) + v(0,2,2) - u(0,2,2) <= 68
MCLin4(0,2,2):  68 y(2,0,2) - u(0,2,2) >= -0
MCLin5(0,2,2):  -45 y(2,0,2) + v(0,2,2) - u(0,2,2) >= -45
MCLin6(2,0,2):  u(2,0,2) >= -0
MCLin7(2,0,2):  -75 y(0,2,2) - u(2,0,2) <= -0
MCLin8(2,0,2):  38 y(0,2,2) + v(2,0,2) - u(2,0,2) <= 38
MCLin9(2,0,2):  38 y(0,2,2) - u(2,0,2) >= -0
MCLin10(2,0,2):  -75 y(0,2,2) + v(2,0,2) - u(2,0,2) >= -75
MCLinV(0,3,0):  x(0,0) - v(0,3,0) - x(3,0) = 8
MCLinV(3,0,0):  - x(0,0) - v(3,0,0) + x(3,0) = 7
MCLin1(0,3,0):  u(0,3,0) >= -0
MCLin2(0,3,0):  -63 y(3,0,0) - u(0,3,0) <= -0
MCLin3(0,3,0):  52 y(3,0,0) + v(0,3,0) - u(0,3,0) <= 52
MCLin4(0,3,0):  52 y(3,0,0) - u(0,3,0) >= -0
MCLin5(0,3,0):  -63 y(3,0,0) + v(0,3,0) - u(0,3,0) >= -63
MCLin6(3,0,0):  u(3,0,0) >= -0
MCLin7(3,0,0):  -67 y(0,3,0) - u(3,0,0) <= -0
MCLin8(3,0,0):  48 y(0,3,0) + v(3,0,0) - u(3,0,0) <= 48
MCLin9(3,0,0):  48 y(0,3,0) - u(3,0,0) >= -0
MCLin10(3,0,0):  -67 y(0,3,0) + v(3,0,0) - u(3,0,0) >= -67
MCLinV(0,3,1):  x(0,1) - v(0,3,1) - x(3,1) = 5
MCLinV(3,0,1):  - x(0,1) - v(3,0,1) + x(3,1) = 7
MCLin1(0,3,1):  u(0,3,1) >= -0
MCLin2(0,3,1):  -75 y(3,0,1) - u(0,3,1) <= -0
MCLin3(0,3,1):  40 y(3,0,1) + v(0,3,1) - u(0,3,1) <= 40
MCLin4(0,3,1):  40 y(3,0,1) - u(0,3,1) >= -0
MCLin5(0,3,1):  -75 y(3,0,1) + v(0,3,1) - u(0,3,1) >= -75
MCLin6(3,0,1):  u(3,0,1) >= -0
MCLin7(3,0,1):  -52 y(0,3,1) - u(3,0,1) <= -0
MCLin8(3,0,1):  63 y(0,3,1) + v(3,0,1) - u(3,0,1) <= 63
MCLin9(3,0,1):  63 y(0,3,1) - u(3,0,1) >= -0
MCLin10(3,0,1):  -52 y(0,3,1) + v(3,0,1) - u(3,0,1) >= -52
MCLinV(0,3,2):  x(0,2) - v(0,3,2) - x(3,2) = 2
MCLinV(3,0,2):  - x(0,2) - v(3,0,2) + x(3,2) = 6
MCLin1(0,3,2):  u(0,3,2) >= -0
MCLin2(0,3,2):  -48 y(3,0,2) - u(0,3,2) <= -0
MCLin3(0,3,2):  67 y(3,0,2) + v(0,3,2) - u(0,3,2) <= 67
MCLin4(0,3,2):  67 y(3,0,2) - u(0,3,2) >= -0
MCLin5(0,3,2):  -48 y(3,0,2) + v(0,3,2) - u(0,3,2) >= -48
MCLin6(3,0,2):  u(3,0,2) >= -0
MCLin7(3,0,2):  -75 y(0,3,2) - u(3,0,2) <= -0
MCLin8(3,0,2):  40 y(0,3,2) + v(3,0,2) - u(3,0,2) <= 40
MCLin9(3,0,2):  40 y(0,3,2) - u(3,0,2) >= -0
MCLin10(3,0,2):  -75 y(0,3,2) + v(3,0,2) - u(3,0,2) >= -75
MCLinV(1,2,0):  x(1,0) - v(1,2,0) - x(2,0) = 9
MCLinV(2,1,0):  - x(1,0) - v(2,1,0) + x(2,0) = 10
MCLin1(1,2,0):  u(1,2,0) >= -0
MCLin2(1,2,0):  -63 y(2,1,0) - u(1,2,0) <= -0
MCLin3(1,2,0):  47 y(2,1,0) + v(1,2,0) - u(1,2,0) <= 47
MCLin4(1,2,0):  47 y(2,1,0) - u(1,2,0) >= -0
MCLin5(1,2,0):  -63 y(2,1,0) + v(1,2,0) - u(1,2,0) >= -63
MCLin6(2,1,0):  u(2,1,0) >= -0
MCLin7(2,1,0):  -66 y(1,2,0) - u(2,1,0) <= -0
MCLin8(2,1,0):  44 y(1,2,0) + v(2,1,0) - u(2,1,0) <= 44
MCLin9(2,1,0):  44 y(1,2,0) - u(2,1,0) >= -0
MCLin10(2,1,0):  -66 y(1,2,0) + v(2,1,0) - u(2,1,0) >= -66
MCLinV(1,2,1):  x(1,1) - v(1,2,1) - x(2,1) = 7
MCLinV(2,1,1):  - x(1,1) - v(2,1,1) + x(2,1) = 5
MCLin1(1,2,1):  u(1,2,1) >= -0
MCLin2(1,2,1):  -75 y(2,1,1) - u(1,2,1) <= -0
MCLin3(1,2,1):  35 y(2,1,1) + v(1,2,1) - u(1,2,1) <= 35
MCLin4(1,2,1):  35 y(2,1,1) - u(1,2,1) >= -0
MCLin5(1,2,1):  -75 y(2,1,1) + v(1,2,1) - u(1,2,1) >= -75
MCLin6(2,1,1):  u(2,1,1) >= -0
MCLin7(2,1,1):  -47 y(1,2,1) - u(2,1,1) <= -0
MCLin8(2,1,1):  63 y(1,2,1) + v(2,1,1) - u(2,1,1) <= 63
MCLin9(2,1,1):  63 y(1,2,1) - u(2,1,1) >= -0
MCLin10(2,1,1):  -47 y(1,2,1) + v(2,1,1) - u(2,1,1) >= -47
MCLinV(1,2,2):  x(1,2) - v(1,2,2) - x(2,2) = 1
MCLinV(2,1,2):  - x(1,2) - v(2,1,2) + x(2,2) = 8
MCLin1(1,2,2):  u(1,2,2) >= -0
MCLin2(1,2,2):  -44 y(2,1,2) - u(1,2,2) <= -0
MCLin3(1,2,2):  66 y(2,1,2) + v(1,2,2) - u(1,2,2) <= 66
MCLin4(1,2,2):  66 y(2,1,2) - u(1,2,2) >= -0
MCLin5(1,2,2):  -44 y(2,1,2) + v(1,2,2) - u(1,2,2) >= -44
MCLin6(2,1,2):  u(2,1,2) >= -0
MCLin7(2,1,2):  -75 y(1,2,2) - u(2,1,2) <= -0
MCLin8(2,1,2):  35 y(1,2,2) + v(2,1,2) - u(2,1,2) <= 35
MCLin9(2,1,2):  35 y(1,2,2) - u(2,1,2) >= -0
MCLin10(2,1,2):  -75 y(1,2,2) + v(2,1,2) - u(2,1,2) >= -75
MCLinV(1,3,0):  x(1,0) - v(1,3,0) - x(3,0) = 8
MCLinV(3,1,0):  - x(1,0) - v(3,1,0) + x(3,0) = 10
MCLin1(1,3,0):  u(1,3,0) >= -0
MCLin2(1,3,0):  -65 y(3,1,0) - u(1,3,0) <= -0
MCLin3(1,3,0):  47 y(3,1,0) + v(1,3,0) - u(1,3,0) <= 47
MCLin4(1,3,0):  47 y(3,1,0) - u(1,3,0) >= -0
MCLin5(1,3,0):  -65 y(3,1,0) + v(1,3,0) - u(1,3,0) >= -65
MCLin6(3,1,0):  u(3,1,0) >= -0
MCLin7(3,1,0):  -65 y(1,3,0) - u(3,1,0) <= -0
MCLin8(3,1,0):  47 y(1,3,0) + v(3,1,0) - u(3,1,0) <= 47
MCLin9(3,1,0):  47 y(1,3,0) - u(3,1,0) >= -0
MCLin10(3,1,0):  -65 y(1,3,0) + v(3,1,0) - u(3,1,0) >= -65
MCLinV(1,3,1):  x(1,1) - v(1,3,1) - x(3,1) = 5
MCLinV(3,1,1):  - x(1,1) - v(3,1,1) + x(3,1) = 5
MCLin1(1,3,1):  u(1,3,1) >= -0
MCLin2(1,3,1):  -75 y(3,1,1) - u(1,3,1) <= -0
MCLin3(1,3,1):  37 y(3,1,1) + v(1,3,1) - u(1,3,1) <= 37
MCLin4(1,3,1):  37 y(3,1,1) - u(1,3,1) >= -0
MCLin5(1,3,1):  -75 y(3,1,1) + v(1,3,1) - u(1,3,1) >= -75
MCLin6(3,1,1):  u(3,1,1) >= -0
MCLin7(3,1,1):  -47 y(1,3,1) - u(3,1,1) <= -0
MCLin8(3,1,1):  65 y(1,3,1) + v(3,1,1) - u(3,1,1) <= 65
MCLin9(3,1,1):  65 y(1,3,1) - u(3,1,1) >= -0
MCLin10(3,1,1):  -47 y(1,3,1) + v(3,1,1) - u(3,1,1) >= -47
MCLinV(1,3,2):  x(1,2) - v(1,3,2) - x(3,2) = 2
MCLinV(3,1,2):  - x(1,2) - v(3,1,2) + x(3,2) = 8
MCLin1(1,3,2):  u(1,3,2) >= -0
MCLin2(1,3,2):  -47 y(3,1,2) - u(1,3,2) <= -0
MCLin3(1,3,2):  65 y(3,1,2) + v(1,3,2) - u(1,3,2) <= 65
MCLin4(1,3,2):  65 y(3,1,2) - u(1,3,2) >= -0
MCLin5(1,3,2):  -47 y(3,1,2) + v(1,3,2) - u(1,3,2) >= -47
MCLin6(3,1,2):  u(3,1,2) >= -0
MCLin7(3,1,2):  -75 y(1,3,2) - u(3,1,2) <= -0
MCLin8(3,1,2):  37 y(1,3,2) + v(3,1,2) - u(3,1,2) <= 37
MCLin9(3,1,2):  37 y(1,3,2) - u(3,1,2) >= -0
MCLin10(3,1,2):  -75 y(1,3,2) + v(3,1,2) - u(3,1,2) >= -75
MCLinV(2,3,0):  x(2,0) - v(2,3,0) - x(3,0) = 8
MCLinV(3,2,0):  - x(2,0) - v(3,2,0) + x(3,0) = 9
MCLin1(2,3,0):  u(2,3,0) >= -0
MCLin2(2,3,0):  -69 y(3,2,0) - u(2,3,0) <= -0
MCLin3(2,3,0):  49 y(3,2,0) + v(2,3,0) - u(2,3,0) <= 49
MCLin4(2,3,0):  49 y(3,2,0) - u(2,3,0) >= -0
MCLin5(2,3,0):  -69 y(3,2,0) + v(2,3,0) - u(2,3,0) >= -69
MCLin6(3,2,0):  u(3,2,0) >= -0
MCLin7(3,2,0):  -66 y(2,3,0) - u(3,2,0) <= -0
MCLin8(3,2,0):  52 y(2,3,0) + v(3,2,0) - u(3,2,0) <= 52
MCLin9(3,2,0):  52 y(2,3,0) - u(3,2,0) >= -0
MCLin10(3,2,0):  -66 y(2,3,0) + v(3,2,0) - u(3,2,0) >= -66
MCLinV(2,3,1):  x(2,1) - v(2,3,1) - x(3,1) = 5
MCLinV(3,2,1):  - x(2,1) - v(3,2,1) + x(3,1) = 7
MCLin1(2,3,1):  u(2,3,1) >= -0
MCLin2(2,3,1):  -65 y(3,2,1) - u(2,3,1) <= -0
MCLin3(2,3,1):  53 y(3,2,1) + v(2,3,1) - u(2,3,1) <= 53
MCLin4(2,3,1):  53 y(3,2,1) - u(2,3,1) >= -0
MCLin5(2,3,1):  -65 y(3,2,1) + v(2,3,1) - u(2,3,1) >= -65
MCLin6(3,2,1):  u(3,2,1) >= -0
MCLin7(3,2,1):  -65 y(2,3,1) - u(3,2,1) <= -0
MCLin8(3,2,1):  53 y(2,3,1) + v(3,2,1) - u(3,2,1) <= 53
MCLin9(3,2,1):  53 y(2,3,1) - u(3,2,1) >= -0
MCLin10(3,2,1):  -65 y(2,3,1) + v(3,2,1) - u(3,2,1) >= -65
MCLinV(2,3,2):  x(2,2) - v(2,3,2) - x(3,2) = 2
MCLinV(3,2,2):  - x(2,2) - v(3,2,2) + x(3,2) = 1
MCLin1(2,3,2):  u(2,3,2) >= -0
MCLin2(2,3,2):  -62 y(3,2,2) - u(2,3,2) <= -0
MCLin3(2,3,2):  56 y(3,2,2) + v(2,3,2) - u(2,3,2) <= 56
MCLin4(2,3,2):  56 y(3,2,2) - u(2,3,2) >= -0
MCLin5(2,3,2):  -62 y(3,2,2) + v(2,3,2) - u(2,3,2) >= -62
MCLin6(3,2,2):  u(3,2,2) >= -0
MCLin7(3,2,2):  -59 y(2,3,2) - u(3,2,2) <= -0
MCLin8(3,2,2):  59 y(2,3,2) + v(3,2,2) - u(3,2,2) <= 59
MCLin9(3,2,2):  59 y(2,3,2) - u(3,2,2) >= -0
MCLin10(3,2,2):  -59 y(2,3,2) + v(3,2,2) - u(3,2,2) >= -59
makespan(0):  C - x(0,2) >= 6
makespan(1):  C - x(1,2) >= 8
makespan(2):  C - x(2,1) >= 7
makespan(3):  C - x(3,1) >= 5
Bounds
 0 <= C <= 75
 7 <= x(0,0) <= 62
 0 <= y(0,1,0) <= 1
 0 <= y(1,0,0) <= 1
 -60 <= v(0,1,0) <= 47
 -64 <= v(1,0,0) <= 43
 -750 <= u(0,1,0)
 -750 <= u(1,0,0)
 0 <= y(0,2,0) <= 1
 0 <= y(2,0,0) <= 1
 -61 <= v(0,2,0) <= 52
 -68 <= v(2,0,0) <= 45
 -750 <= u(0,2,0)
 -750 <= u(2,0,0)
 0 <= y(0,3,0) <= 1
 0 <= y(3,0,0) <= 1
 -63 <= v(0,3,0) <= 52
 -67 <= v(3,0,0) <= 48
 -750 <= u(0,3,0)
 -750 <= u(3,0,0)
 5 <= x(1,0) <= 57
 0 <= y(1,2,0) <= 1
 0 <= y(2,1,0) <= 1
 -63 <= v(1,2,0) <= 47
 -66 <= v(2,1,0) <= 44
 -750 <= u(1,2,0)
 -750 <= u(2,1,0)
 0 <= y(1,3,0) <= 1
 0 <= y(3,1,0) <= 1
 -65 <= v(1,3,0) <= 47
 -65 <= v(3,1,0) <= 47
 -750 <= u(1,3,0)
 -750 <= u(3,1,0)
 1 <= x(2,0) <= 59
 0 <= y(2,3,0) <= 1
 0 <= y(3,2,0) <= 1
 -69 <= v(2,3,0) <= 49
 -66 <= v(3,2,0) <= 52
 -750 <= u(2,3,0)
 -750 <= u(3,2,0)
 2 <= x(3,0) <= 62
 0 <= x(0,1) <= 55
 0 <= y(0,1,1) <= 1
 0 <= y(1,0,1) <= 1
 -57 <= v(0,1,1) <= 50
 -62 <= v(1,0,1) <= 45
 -750 <= u(0,1,1)
 -750 <= u(1,0,1)
 0 <= y(0,2,1) <= 1
 0 <= y(2,0,1) <= 1
 -75 <= v(0,2,1) <= 38
 -52 <= v(2,0,1) <= 61
 -750 <= u(0,2,1)
 -750 <= u(2,0,1)
 0 <= y(0,3,1) <= 1
 0 <= y(3,0,1) <= 1
 -75 <= v(0,3,1) <= 40
 -52 <= v(3,0,1) <= 63
 -750 <= u(0,3,1)
 -750 <= u(3,0,1)
 0 <= x(1,1) <= 52
 0 <= y(1,2,1) <= 1
 0 <= y(2,1,1) <= 1
 -75 <= v(1,2,1) <= 35
 -47 <= v(2,1,1) <= 63
 -750 <= u(1,2,1)
 -750 <= u(2,1,1)
 0 <= y(1,3,1) <= 1
 0 <= y(3,1,1) <= 1
 -75 <= v(1,3,1) <= 37
 -47 <= v(3,1,1) <= 65
 -750 <= u(1,3,1)
 -750 <= u(3,1,1)
 10 <= x(2,1) <= 68
 0 <= y(2,3,1) <= 1
 0 <= y(3,2,1) <= 1
 -65 <= v(2,3,1) <= 53
 -65 <= v(3,2,1) <= 53
 -750 <= u(2,3,1)
 -750 <= u(3,2,1)
 10 <= x(3,1) <= 70
 14 <= x(0,2) <= 69
 0 <= y(0,1,2) <= 1
 0 <= y(1,0,2) <= 1
 -61 <= v(0,1,2) <= 46
 -60 <= v(1,0,2) <= 47
 -750 <= u(0,1,2)
 -750 <= u(1,0,2)
 0 <= y(0,2,2) <= 1
 0 <= y(2,0,2) <= 1
 -45 <= v(0,2,2) <= 68
 -75 <= v(2,0,2) <= 38
 -750 <= u(0,2,2)
 -750 <= u(2,0,2)
 0 <= y(0,3,2) <= 1
 0 <= y(3,0,2) <= 1
 -48 <= v(0,3,2) <= 67
 -75 <= v(3,0,2) <= 40
 -750 <= u(0,3,2)
 -750 <= u(3,0,2)
 15 <= x(1,2) <= 67
 0 <= y(1,2,2) <= 1
 0 <= y(2,1,2) <= 1
 -44 <= v(1,2,2) <= 66
 -75 <= v(2,1,2) <= 35
 -750 <= u(1,2,2)
 -750 <= u(2,1,2)
 0 <= y(1,3,2) <= 1
 0 <= y(3,1,2) <= 1
 -47 <= v(1,3,2) <= 65
 -75 <= v(3,1,2) <= 37
 -750 <= u(1,3,2)
 -750 <= u(3,1,2)
 0 <= x(2,2) <= 58
 0 <= y(2,3,2) <= 1
 0 <= y(3,2,2) <= 1
 -62 <= v(2,3,2) <= 56
 -59 <= v(3,2,2) <= 59
 -750 <= u(2,3,2)
 -750 <= u(3,2,2)
 0 <= x(3,2) <= 60
Integers
C x(0,0) y(0,1,0) y(1,0,0) v(0,1,0) v(1,0,0) u(0,1,0) u(1,0,0) y(0,2,0) y(2,0,0) 
v(0,2,0) v(2,0,0) u(0,2,0) u(2,0,0) y(0,3,0) y(3,0,0) v(0,3,0) v(3,0,0) u(0,3,0) u(3,0,0) 
x(1,0) y(1,2,0) y(2,1,0) v(1,2,0) v(2,1,0) u(1,2,0) u(2,1,0) y(1,3,0) y(3,1,0) v(1,3,0) 
v(3,1,0) u(1,3,0) u(3,1,0) x(2,0) y(2,3,0) y(3,2,0) v(2,3,0) v(3,2,0) u(2,3,0) u(3,2,0) 
x(3,0) x(0,1) y(0,1,1) y(1,0,1) v(0,1,1) v(1,0,1) u(0,1,1) u(1,0,1) y(0,2,1) y(2,0,1) 
v(0,2,1) v(2,0,1) u(0,2,1) u(2,0,1) y(0,3,1) y(3,0,1) v(0,3,1) v(3,0,1) u(0,3,1) u(3,0,1) 
x(1,1) y(1,2,1) y(2,1,1) v(1,2,1) v(2,1,1) u(1,2,1) u(2,1,1) y(1,3,1) y(3,1,1) v(1,3,1) 
v(3,1,1) u(1,3,1) u(3,1,1) x(2,1) y(2,3,1) y(3,2,1) v(2,3,1) v(3,2,1) u(2,3,1) u(3,2,1) 
x(3,1) x(0,2) y(0,1,2) y(1,0,2) v(0,1,2) v(1,0,2) u(0,1,2) u(1,0,2) y(0,2,2) y(2,0,2) 
v(0,2,2) v(2,0,2) u(0,2,2) u(2,0,2) y(0,3,2) y(3,0,2) v(0,3,2) v(3,0,2) u(0,3,2) u(3,0,2) 
x(1,2) y(1,2,2) y(2,1,2) v(1,2,2) v(2,1,2) u(1,2,2) u(2,1,2) y(1,3,2) y(3,1,2) v(1,3,2) 
v(3,1,2) u(1,3,2) u(3,1,2) x(2,2) y(2,3,2) y(3,2,2) v(2,3,2) v(3,2,2) u(2,3,2) u(3,2,2) 
x(3,2) 
End
